************************************************************************
file with basedata            : md331_.bas
initial value random generator: 1469038660
************************************************************************
projects                      :  1
jobs (incl. supersource/sink ):  22
horizon                       :  150
RESOURCES
  - renewable                 :  2   R
  - nonrenewable              :  2   N
  - doubly constrained        :  0   D
************************************************************************
PROJECT INFORMATION:
pronr.  #jobs rel.date duedate tardcost  MPM-Time
    1     20      0       18        0       18
************************************************************************
PRECEDENCE RELATIONS:
jobnr.    #modes  #successors   successors
   1        1          3           2   3   4
   2        3          3           5   6  18
   3        3          3           8  11  14
   4        3          3           7   9  12
   5        3          3           7  14  21
   6        3          3           9  12  17
   7        3          1          20
   8        3          3          10  16  20
   9        3          1          19
  10        3          3          12  15  17
  11        3          3          13  15  18
  12        3          1          13
  13        3          2          19  21
  14        3          1          15
  15        3          1          19
  16        3          1          17
  17        3          1          21
  18        3          1          20
  19        3          1          22
  20        3          1          22
  21        3          1          22
  22        1          0        
************************************************************************
REQUESTS/DURATIONS:
jobnr. mode duration  R 1  R 2  N 1  N 2
------------------------------------------------------------------------
  1      1     0       0    0    0    0
  2      1     4       0    7    0    9
         2     8       7    0   10    0
         3    10       0    4    0    8
  3      1     3       0    5    8    0
         2     6       0    3    7    0
         3    10       9    0    0    7
  4      1     2       9    0    8    0
         2     3       0    6    2    0
         3     9       7    0    0    2
  5      1     1      10    0    0    6
         2     1       0    6    3    0
         3     5       0    4    0    7
  6      1     4       4    0    0    8
         2     5       0    7    0    4
         3    10       0    6    0    4
  7      1     2       4    0    1    0
         2     3       0    3    0    4
         3     8       4    0    0    4
  8      1     2       0    5    0    7
         2     7       0    4    6    0
         3     9       0    4    5    0
  9      1     1       8    0    6    0
         2     7       5    0    6    0
         3     8       0    7    3    0
 10      1     3       0    9    0    6
         2     5       0    8    0    3
         3     9       0    8    7    0
 11      1     1       6    0    5    0
         2     1       0   10    7    0
         3     4       0    9    3    0
 12      1     2       6    0    0    5
         2     6       5    0    0    2
         3     7       0    6    9    0
 13      1     4       7    0    9    0
         2     5       6    0    0    9
         3    10       3    0    0    7
 14      1     4       9    0    0    5
         2     5       5    0    0    2
         3     6       0    5    9    0
 15      1     3       0    2    7    0
         2     6       4    0    0    9
         3     6       0    1    0    2
 16      1     2       0    3    0    8
         2     4       0    2    8    0
         3     4       5    0    0    3
 17      1     4       0    8    0    4
         2     7       8    0    2    0
         3     8       3    0    0    3
 18      1     4       6    0    0    7
         2     5       0    7    0    5
         3     7       6    0    0    3
 19      1     4       6    0    9    0
         2     4       5    0   10    0
         3     5       5    0    9    0
 20      1     3       8    0    8    0
         2     4       7    0    7    0
         3     5       0    7    7    0
 21      1     1       0    5    6    0
         2     2       0    3    0    6
         3    10       0    2    0    5
 22      1     0       0    0    0    0
************************************************************************
RESOURCEAVAILABILITIES:
  R 1  R 2  N 1  N 2
   22   28   73   55
************************************************************************
MAXIMAL LAGS:
from  to  type  delay
    1   22   ES      0
    1    2   ES      0
    2   22   ES      0
    1    3   ES      0
    3   22   ES      0
    1    4   ES      0
    4   22   ES      0
    1    5   ES      0
    5   22   ES      0
    1    6   ES      0
    6   22   ES      0
    1    7   ES      0
    7   22   ES      0
    1    8   ES      0
    8   22   ES      0
    1    9   ES      0
    9   22   ES      0
    1   10   ES      0
   10   22   ES      0
    1   11   ES      0
   11   22   ES      0
    1   12   ES      0
   12   22   ES      0
    1   13   ES      0
   13   22   ES      0
    1   14   ES      0
   14   22   ES      0
    1   15   ES      0
   15   22   ES      0
    1   16   ES      0
   16   22   ES      0
    1   17   ES      0
   17   22   ES      0
    1   18   ES      0
   18   22   ES      0
    1   19   ES      0
   19   22   ES      0
    1   20   ES      0
   20   22   ES      0
    1   21   ES      0
   21   22   ES      0
    1   22   ES      0
    2    5   SS     -5
    2    5   SE      7
    2    5   ES    -11
    2    5   EE     11
    2    6   SS      9
    2    6   SE      4
    2    6   ES     -3
    2    6   EE      2
    2   18   SS      8
    2   18   SE    -12
    2   18   ES    -11
    2   18   EE      3
    3    8   SS      0
    3    8   SE      1
    3    8   ES      9
    3    8   EE     -9
    3   11   SS      3
    3   11   SE     10
    3   11   ES      2
    3   11   EE    -10
    3   14   SS    -10
    3   14   SE     -2
    3   14   ES      7
    3   14   EE     -8
    4    7   SS    -10
    4    7   SE     -8
    4    7   ES     -4
    4    7   EE      7
    4    9   SS      8
    4    9   SE      6
    4    9   ES      5
    4    9   EE     10
    4   12   SS     -2
    4   12   SE      0
    4   12   ES      7
    4   12   EE      4
    5    7   SS     -3
    5    7   SE      2
    5    7   ES      4
    5    7   EE      7
    5   14   SS      1
    5   14   SE     -9
    5   14   ES     10
    5   14   EE     -9
    5   21   SS      8
    5   21   SE      8
    5   21   ES     12
    5   21   EE      5
    6    9   SS     11
    6    9   SE     -6
    6    9   ES      1
    6    9   EE      2
    6   12   SS     -5
    6   12   SE      1
    6   12   ES     -2
    6   12   EE      2
    6   17   SS      0
    6   17   SE      1
    6   17   ES     11
    6   17   EE     -9
    7   20   SS     -2
    7   20   SE      1
    7   20   ES     -2
    7   20   EE      9
    8   10   SS     -4
    8   10   SE     -1
    8   10   ES     -8
    8   10   EE      9
    8   16   SS      3
    8   16   SE    -10
    8   16   ES    -10
    8   16   EE    -10
    8   20   SS    -10
    8   20   SE      1
    8   20   ES     -9
    8   20   EE     11
    9   19   SS     11
    9   19   SE     -1
    9   19   ES     -8
    9   19   EE      5
   10   12   SS    -11
   10   12   SE      6
   10   12   ES      5
   10   12   EE      5
   10   15   SS     -2
   10   15   SE      9
   10   15   ES     -9
   10   15   EE      1
   10   17   SS     -1
   10   17   SE      9
   10   17   ES     12
   10   17   EE      1
   11   13   SS     11
   11   13   SE    -11
   11   13   ES     -3
   11   13   EE      7
   11   15   SS     -3
   11   15   SE     -1
   11   15   ES     -9
   11   15   EE      6
   11   18   SS      4
   11   18   SE     -6
   11   18   ES     -8
   11   18   EE      9
   12   13   SS      3
   12   13   SE     -5
   12   13   ES     -9
   12   13   EE     -1
   13   19   SS      5
   13   19   SE     -1
   13   19   ES     -9
   13   19   EE     12
   13   21   SS     -4
   13   21   SE      6
   13   21   ES     -5
   13   21   EE      1
   14   15   SS      5
   14   15   SE     12
   14   15   ES      7
   14   15   EE      7
   15   19   SS      9
   15   19   SE      8
   15   19   ES      5
   15   19   EE    -12
   16   17   SS      7
   16   17   SE      9
   16   17   ES     10
   16   17   EE     -4
   17   21   SS    -12
   17   21   SE     -7
   17   21   ES     -4
   17   21   EE     10
   18   20   SS     12
   18   20   SE     -3
   18   20   ES     -2
   18   20   EE     -1
************************************************************************
